ssat_solver_solve2
#level: 2
Abc_NtkNodeNum(s->pNtk): 1167  , BDD limit: 10240
level 1: 10 element
Exist
existence_eliminate_scope
Abc_NtkIsBddLogic(pNtk): 0
Abc_NtkIsStrash(pNtk): 1
existence_eliminate_scope_aig
exist by BDD failed
Abc_NtkNodeNum(s->pNtk): 12374  , BDD limit: 14848
Build BDD success
level 0: 10 element
Random
c ssat solving in ABC
#var: 20
s SATISFIABLE
  > Upper bound = 1.000000e+00
  > Lower bound = 1.000000e+00
FINISHED CPU 0.13 MEM 61768 MAXMEM 61768 STALE 0 MAXMEM_RSS 18560
<time name="ALL">190</time>
real 0.25
user 0.23
sys 0.12
